p cnf 7230 17
4104 -4777 0
4150 -4777 0
-2388 -4104 -4146 -4150 4776 0
4104 -4781 0
-2402 -4104 -4150 4780 0
4150 -4781 0
2388 -4777 0
4778 4779 0
4144 -4779 0
-4144 -4778 0
-4776 4777 0
-4780 4781 0
2402 -4781 0
4146 -4777 0
4148 -4783 0
4774 4775 0
-4774 -4775 0
